(declare-fun temp10853_2 () (_ BitVec 64))
(declare-fun temp10853_1 () (_ BitVec 64))
(declare-fun temp10853_3 () (_ BitVec 64))
(declare-fun var2164534 () (_ BitVec 64))
(declare-fun var2363612 () (_ BitVec 64))
(declare-fun temp10853_4 () (_ BitVec 64))
(declare-fun var2494807 () (_ BitVec 64))
(declare-fun temp10853_5 () (_ BitVec 64))
(declare-fun var2494808 () (_ BitVec 64))
(declare-fun temp10853_7 () (_ BitVec 64))
(declare-fun temp10853_6 () (_ BitVec 64))
(declare-fun temp10853_8 () (_ BitVec 64))
(declare-fun var3082266 () (_ BitVec 64))
(declare-fun temp10853_9 () (_ BitVec 64))
(declare-fun var3082271 () (_ BitVec 64))
(declare-fun temp10853_10 () (_ BitVec 64))
(declare-fun var3082273 () (_ BitVec 64))
(declare-fun temp10853_11 () (_ BitVec 64))
(declare-fun temp10853_12 () (_ BitVec 64))
(declare-fun var3672270 () (_ BitVec 64))
(declare-fun temp10853_13 () (_ BitVec 64))
(declare-fun temp10853_14 () (_ BitVec 64))
(declare-fun var3672300 () (_ BitVec 64))
(declare-fun var3672347 () (_ BitVec 64))
(declare-fun var3672268 () (_ BitVec 64))
(declare-fun var532113 () (_ BitVec 64))
(declare-fun var532115 () (_ BitVec 64))
(declare-fun var4071135 () (_ BitVec 64))
(declare-fun temp10853_16 () (_ BitVec 64))
(declare-fun temp10853_15 () (_ BitVec 64))
(assert (= temp10853_2 #x0000000000000000))
(assert (= temp10853_1 temp10853_2))
(assert (= temp10853_3 #x0000000000000000))
(assert (= var2164534 temp10853_3))
(assert (= var2363612 var2164534))
(assert (= temp10853_4 #x0000000000000000))
(assert (= var2494807 temp10853_4))
(assert (= temp10853_5 #x0000000000000000))
(assert (= var2494808 temp10853_5))
(assert (= temp10853_7 #x0000000000000000))
(assert (= temp10853_6 temp10853_7))
(assert (= temp10853_8 #x0000000000000000))
(assert (= var3082266 temp10853_8))
(assert (= temp10853_9 #x0000000000000001))
(assert (= var3082271 (bvand var3082266 temp10853_9)))
(assert (= temp10853_10 #x0000000000000000))
(assert (= var3082273
   (ite (= var3082271 temp10853_10) #x0000000000000001 #x0000000000000000)))
(assert (= temp10853_11 #x0000000000000001))
(assert (= var3082273 temp10853_11))
(assert (= temp10853_12 #x0000000000000001))
(assert (= var3672270 temp10853_12))
(assert (= temp10853_13 #x0000000000000000))
(assert (= temp10853_14 #x0000000000000002))
(assert (= var3672300 (ite (= var3672270 #x0000000000000001) temp10853_13 temp10853_14)))
(assert (= var3672347 var3672300))
(assert (= var3672268 var3672347))
(assert (= var532113 var3672268))
(assert (= var532115 var532113))
(assert (= var4071135 var532115))
(assert (= temp10853_16 #x0000000000000005))
(assert (= temp10853_15 temp10853_16))
(model-add temp10853_2 () (_ BitVec 64) #x0000000000000000)
(model-add temp10853_1 () (_ BitVec 64) #x0000000000000000)
(model-add temp10853_3 () (_ BitVec 64) #x0000000000000000)
(model-add var2164534 () (_ BitVec 64) #x0000000000000000)
(model-add var2363612 () (_ BitVec 64) #x0000000000000000)
(model-add temp10853_4 () (_ BitVec 64) #x0000000000000000)
(model-add var2494807 () (_ BitVec 64) #x0000000000000000)
(model-add temp10853_5 () (_ BitVec 64) #x0000000000000000)
(model-add var2494808 () (_ BitVec 64) #x0000000000000000)
(model-add temp10853_7 () (_ BitVec 64) #x0000000000000000)
(model-add temp10853_6 () (_ BitVec 64) #x0000000000000000)
(model-add temp10853_8 () (_ BitVec 64) #x0000000000000000)
(model-add var3082266 () (_ BitVec 64) #x0000000000000000)
(model-add temp10853_9 () (_ BitVec 64) #x0000000000000001)
(model-add var3082271 () (_ BitVec 64) #x0000000000000000)
(model-add temp10853_10 () (_ BitVec 64) #x0000000000000000)
(model-add var3082273 () (_ BitVec 64) #x0000000000000001)
(model-add temp10853_11 () (_ BitVec 64) #x0000000000000001)





